40 780
1 2 46
1 3 55
1 4 69
1 5 1
1 6 104
1 7 87
1 8 72
1 9 50
1 10 9
1 11 58
1 12 103
1 13 109
1 14 94
1 15 55
1 16 55
1 17 57
1 18 104
1 19 36
1 20 50
1 21 44
1 22 38
1 23 106
1 24 52
1 25 3
1 26 0
1 27 55
1 28 21
1 29 21
1 30 73
1 31 38
1 32 102
1 33 56
1 34 66
1 35 46
1 36 117
1 37 30
1 38 8
1 39 49
1 40 66
2 3 58
2 4 87
2 5 32
2 6 40
2 7 115
2 8 42
2 9 45
2 10 33
2 11 32
2 12 109
2 13 28
2 14 3
2 15 114
2 16 115
2 17 79
2 18 98
2 19 95
2 20 57
2 21 50
2 22 17
2 23 112
2 24 81
2 25 89
2 26 73
2 27 59
2 28 48
2 29 76
2 30 23
2 31 114
2 32 94
2 33 22
2 34 67
2 35 62
2 36 62
2 37 75
2 38 23
2 39 56
2 40 114
3 4 70
3 5 103
3 6 109
3 7 106
3 8 71
3 9 73
3 10 82
3 11 55
3 12 53
3 13 115
3 14 112
3 15 85
3 16 94
3 17 79
3 18 36
3 19 91
3 20 59
3 21 107
3 22 51
3 23 8
3 24 37
3 25 72
3 26 59
3 27 54
3 28 103
3 29 96
3 30 30
3 31 4
3 32 54
3 33 75
3 34 8
3 35 100
3 36 31
3 37 40
3 38 17
3 39 78
3 40 9
4 5 53
4 6 68
4 7 62
4 8 114
4 9 59
4 10 3
4 11 4
4 12 39
4 13 54
4 14 70
4 15 40
4 16 96
4 17 67
4 18 107
4 19 53
4 20 22
4 21 108
4 22 106
4 23 17
4 24 27
4 25 97
4 26 60
4 27 43
4 28 86
4 29 15
4 30 13
4 31 0
4 32 10
4 33 104
4 34 119
4 35 117
4 36 7
4 37 63
4 38 102
4 39 79
4 40 104
5 6 59
5 7 52
5 8 52
5 9 64
5 10 87
5 11 114
5 12 97
5 13 46
5 14 42
5 15 49
5 16 31
5 17 35
5 18 30
5 19 65
5 20 3
5 21 86
5 22 119
5 23 74
5 24 20
5 25 80
5 26 7
5 27 51
5 28 10
5 29 103
5 30 41
5 31 86
5 32 118
5 33 15
5 34 41
5 35 3
5 36 74
5 37 98
5 38 23
5 39 102
5 40 7
6 7 105
6 8 52
6 9 28
6 10 75
6 11 115
6 12 64
6 13 37
6 14 32
6 15 25
6 16 37
6 17 103
6 18 5
6 19 73
6 20 74
6 21 24
6 22 114
6 23 29
6 24 93
6 25 36
6 26 61
6 27 2
6 28 19
6 29 80
6 30 99
6 31 22
6 32 28
6 33 76
6 34 16
6 35 51
6 36 76
6 37 76
6 38 27
6 39 116
6 40 40
7 8 38
7 9 79
7 10 90
7 11 51
7 12 62
7 13 7
7 14 27
7 15 115
7 16 89
7 17 77
7 18 49
7 19 4
7 20 104
7 21 3
7 22 12
7 23 96
7 24 114
7 25 116
7 26 26
7 27 110
7 28 70
7 29 81
7 30 112
7 31 57
7 32 35
7 33 81
7 34 50
7 35 15
7 36 79
7 37 35
7 38 34
7 39 28
7 40 108
8 9 76
8 10 90
8 11 53
8 12 2
8 13 23
8 14 79
8 15 105
8 16 21
8 17 118
8 18 110
8 19 37
8 20 90
8 21 73
8 22 111
8 23 89
8 24 118
8 25 8
8 26 62
8 27 44
8 28 29
8 29 53
8 30 107
8 31 20
8 32 116
8 33 54
8 34 66
8 35 82
8 36 65
8 37 19
8 38 55
8 39 95
8 40 20
9 10 48
9 11 108
9 12 117
9 13 23
9 14 19
9 15 40
9 16 101
9 17 78
9 18 106
9 19 77
9 20 105
9 21 49
9 22 37
9 23 4
9 24 19
9 25 57
9 26 15
9 27 37
9 28 30
9 29 54
9 30 54
9 31 113
9 32 29
9 33 80
9 34 37
9 35 29
9 36 2
9 37 28
9 38 96
9 39 95
9 40 69
10 11 104
10 12 5
10 13 71
10 14 8
10 15 42
10 16 95
10 17 41
10 18 57
10 19 16
10 20 19
10 21 7
10 22 111
10 23 48
10 24 20
10 25 39
10 26 71
10 27 75
10 28 116
10 29 17
10 30 67
10 31 48
10 32 39
10 33 76
10 34 119
10 35 59
10 36 101
10 37 30
10 38 65
10 39 31
10 40 69
11 12 115
11 13 28
11 14 108
11 15 91
11 16 89
11 17 67
11 18 79
11 19 28
11 20 16
11 21 9
11 22 110
11 23 87
11 24 86
11 25 113
11 26 39
11 27 79
11 28 27
11 29 57
11 30 54
11 31 110
11 32 99
11 33 58
11 34 90
11 35 71
11 36 2
11 37 7
11 38 104
11 39 75
11 40 41
12 13 46
12 14 49
12 15 2
12 16 94
12 17 73
12 18 112
12 19 22
12 20 88
12 21 117
12 22 23
12 23 69
12 24 40
12 25 33
12 26 93
12 27 98
12 28 3
12 29 16
12 30 85
12 31 117
12 32 118
12 33 38
12 34 45
12 35 0
12 36 89
12 37 69
12 38 21
12 39 19
12 40 21
13 14 28
13 15 10
13 16 31
13 17 41
13 18 12
13 19 65
13 20 60
13 21 97
13 22 9
13 23 10
13 24 63
13 25 58
13 26 104
13 27 28
13 28 113
13 29 111
13 30 41
13 31 1
13 32 96
13 33 43
13 34 54
13 35 27
13 36 112
13 37 48
13 38 18
13 39 56
13 40 79
14 15 12
14 16 73
14 17 16
14 18 82
14 19 105
14 20 42
14 21 65
14 22 37
14 23 76
14 24 77
14 25 83
14 26 69
14 27 23
14 28 44
14 29 42
14 30 99
14 31 43
14 32 22
14 33 117
14 34 107
14 35 56
14 36 45
14 37 67
14 38 70
14 39 10
14 40 10
15 16 116
15 17 36
15 18 34
15 19 8
15 20 58
15 21 101
15 22 71
15 23 38
15 24 76
15 25 2
15 26 62
15 27 72
15 28 116
15 29 34
15 30 102
15 31 49
15 32 48
15 33 84
15 34 91
15 35 96
15 36 93
15 37 39
15 38 25
15 39 95
15 40 16
16 17 50
16 18 28
16 19 83
16 20 77
16 21 16
16 22 0
16 23 91
16 24 97
16 25 13
16 26 91
16 27 87
16 28 88
16 29 82
16 30 76
16 31 24
16 32 83
16 33 22
16 34 93
16 35 36
16 36 41
16 37 91
16 38 105
16 39 24
16 40 78
17 18 16
17 19 77
17 20 74
17 21 104
17 22 20
17 23 33
17 24 85
17 25 43
17 26 21
17 27 35
17 28 79
17 29 113
17 30 114
17 31 76
17 32 61
17 33 57
17 34 67
17 35 107
17 36 1
17 37 115
17 38 37
17 39 97
17 40 23
18 19 84
18 20 94
18 21 92
18 22 23
18 23 56
18 24 101
18 25 13
18 26 1
18 27 88
18 28 60
18 29 22
18 30 46
18 31 29
18 32 16
18 33 101
18 34 115
18 35 113
18 36 104
18 37 0
18 38 109
18 39 85
18 40 28
19 20 107
19 21 73
19 22 73
19 23 4
19 24 105
19 25 102
19 26 21
19 27 90
19 28 100
19 29 41
19 30 40
19 31 83
19 32 87
19 33 100
19 34 32
19 35 0
19 36 39
19 37 87
19 38 14
19 39 80
19 40 28
20 21 45
20 22 60
20 23 42
20 24 26
20 25 14
20 26 64
20 27 60
20 28 32
20 29 63
20 30 108
20 31 91
20 32 85
20 33 87
20 34 6
20 35 109
20 36 103
20 37 38
20 38 9
20 39 37
20 40 34
21 22 45
21 23 78
21 24 78
21 25 60
21 26 24
21 27 68
21 28 103
21 29 5
21 30 21
21 31 19
21 32 82
21 33 77
21 34 62
21 35 46
21 36 98
21 37 100
21 38 9
21 39 106
21 40 55
22 23 107
22 24 44
22 25 77
22 26 64
22 27 47
22 28 95
22 29 109
22 30 113
22 31 45
22 32 1
22 33 57
22 34 76
22 35 83
22 36 82
22 37 109
22 38 33
22 39 40
22 40 63
23 24 4
23 25 4
23 26 6
23 27 18
23 28 79
23 29 112
23 30 40
23 31 88
23 32 61
23 33 14
23 34 1
23 35 117
23 36 30
23 37 86
23 38 2
23 39 52
23 40 16
24 25 14
24 26 7
24 27 23
24 28 57
24 29 15
24 30 32
24 31 60
24 32 87
24 33 12
24 34 110
24 35 25
24 36 17
24 37 73
24 38 117
24 39 75
24 40 99
25 26 59
25 27 0
25 28 114
25 29 19
25 30 51
25 31 16
25 32 13
25 33 92
25 34 2
25 35 101
25 36 77
25 37 14
25 38 12
25 39 1
25 40 15
26 27 73
26 28 72
26 29 112
26 30 87
26 31 49
26 32 107
26 33 100
26 34 24
26 35 60
26 36 98
26 37 23
26 38 119
26 39 93
26 40 63
27 28 13
27 29 5
27 30 39
27 31 111
27 32 21
27 33 6
27 34 74
27 35 107
27 36 48
27 37 7
27 38 3
27 39 52
27 40 96
28 29 46
28 30 74
28 31 74
28 32 109
28 33 111
28 34 16
28 35 49
28 36 32
28 37 59
28 38 46
28 39 4
28 40 3
29 30 115
29 31 3
29 32 88
29 33 68
29 34 47
29 35 47
29 36 50
29 37 72
29 38 20
29 39 69
29 40 68
30 31 10
30 32 101
30 33 105
30 34 107
30 35 17
30 36 94
30 37 109
30 38 69
30 39 106
30 40 92
31 32 5
31 33 49
31 34 54
31 35 41
31 36 75
31 37 41
31 38 116
31 39 22
31 40 114
32 33 19
32 34 71
32 35 93
32 36 55
32 37 86
32 38 13
32 39 25
32 40 38
33 34 42
33 35 61
33 36 41
33 37 94
33 38 18
33 39 46
33 40 14
34 35 106
34 36 97
34 37 11
34 38 111
34 39 3
34 40 71
35 36 78
35 37 12
35 38 7
35 39 81
35 40 86
36 37 111
36 38 80
36 39 79
36 40 64
37 38 10
37 39 31
37 40 45
38 39 106
38 40 39
39 40 84
